variable	cutoff equal ${r_c}

units		lj
timestep	0.04
comm_modify	vel yes
atom_style	atomic
pair_style	dpd 1 1 22445
neighbor	2 bin
neigh_modify	every 1 delay 0 check yes one 3000

region		box block 0 10 0 10 0 10 units box
create_box	1 box
create_atoms	1 random 3000 696969 box

mass		1 1

pair_coeff	1 1 25 4.5 ${cutoff}

fix		nve all nve

run		100000

unfix		nve

change_box	all triclinic
fix		1 all nvt temp 1 1 4
fix		2 all deform 1 xz erate 0.15 remap v

run		50000
reset_timestep	0

thermo_style	custom step temp press density vol
thermo		1000

compute		temp all temp
variable	avetemp equal c_temp
fix		avtemp all ave/time 50 200 10000 v_avetemp file avtemp.txt

compute		pressure all pressure temp
variable	avepressure equal c_pressure
fix		avpressure all ave/time 50 200 10000 v_avepressure file avpressure.txt

compute		chunk_vx all chunk/atom bin/1d z center 0.1 units reduced
fix		velo_profile_vx all ave/chunk 50 200 10000 chunk_vx vx file velo_profile_vx.txt

fix		rhostar_profile all ave/chunk 50 200 10000 chunk_vx density/number file rhostar_profile.txt
fix		tstar_profile all ave/chunk 50 200 10000 chunk_vx temp file tstar_profile.txt

variable	pxz equal pxz
fix		press_xz all ave/time 50 200 10000 v_pxz file press_xz.txt

run		800000



