units			lj
comm_modify		cutoff 8 vel yes
atom_style		angle
pair_style		dpd 1 1 22445
neighbor		5 bin
neigh_modify		every 1 delay 0 check yes one 3000

timestep		0.04

read_data		combined_input.txt

bond_style		harmonic
bond_coeff		1 100 0.7

angle_style		harmonic
angle_coeff		1 6 180
angle_coeff		2 3 120
angle_coeff		3 4.5 120

pair_style		dpd 1 1 696969

velocity		all create 1 6969
pair_coeff		1 1 25 4.5 1
pair_coeff		1 2 25 4.5 1
pair_coeff		1 3 100 4.5 1
pair_coeff		2 2 25 4.5 1
pair_coeff		2 3 100 4.5 1
pair_coeff		3 3 25 4.5 1

pair_coeff		4 4 25 4.5 1
pair_coeff		5 5 25 4.5 1
pair_coeff		1 4 25 4.5 1
pair_coeff		1 5 100 4.5 1
pair_coeff		2 5 100 4.5 1
pair_coeff		3 4 100 4.5 1
pair_coeff		3 5 25	4.5 1
pair_coeff		4 5 100 4.5 1

pair_coeff		2 4 70 4.5 1

fix			1 all nvt temp 1 1 4
group		polymer type 2 3 4 5

run			20000

reset_timestep		0
thermo 			1000
thermo_style		custom step temp press density

compute		peratom all stress/atom NULL

dump 			myDump polymer atom 10000 dump.polymeronly
dump			allparticles all custom 20000 dump.allparticles id type xs ys zs &
c_peratom[1] c_peratom[2] c_peratom[3] c_peratom[4] c_peratom[5] c_peratom[6]

run			1000000


