units			lj
comm_modify		cutoff 8 vel yes
atom_style		bond
pair_style		dpd 1 1 22445
neighbor		5 bin
neigh_modify		every 1 delay 0 check yes one 3000

timestep		0.04

read_data		e4o4.txt

bond_style		harmonic
bond_coeff		1 4 0.8

pair_style		hybrid dpd 1 1 696969 srp 0.8 1 mid exclude yes
pair_coeff		4 4 srp 40 0.8

velocity		all create 1 6969
pair_coeff		1 1 dpd 25 4.5 1
pair_coeff		1 2 dpd 26.05 4.5 1
pair_coeff		1 3 dpd 77.52 4.5 1
pair_coeff		2 2 dpd 25 4.5 1
pair_coeff		2 3 dpd 34.58 4.5 1
pair_coeff		3 3 dpd 25 4.5 1

pair_coeff		1 4 none
pair_coeff		2 4 none
pair_coeff		3 4 none

fix			1 all nvt temp 1 1 4
group		polymer type 2 3

run			10000

reset_timestep		0
thermo 			1000
thermo_style		custom step temp press density

dump 			myDump polymer atom 1000 dump.atom

run			600000


